0 100  1 0  2 0  3 0  4 0  5 0  6 0  7 0  8 0  9 0  10 0  11 0  12 0  13 0  14 0  15 0  16 0  17 0  18 0  19 0  20 0  21 0  22 0  23 0  24 0  25 0  26 0  27 0  28 0  29 0  30 0  31 0  32 0  33 0  34 0  35 0  36 0  37 0  38 0  39 0  40 0  41 0  42 0  43 0  44 0  45 0  46 0  47 0  48 0  49 0  50 0  
0 100  1 0  2 0  3 0  4 0  5 0  6 0  7 0  8 0  9 0  10 0  11 0  12 3  13 0  14 0  15 0  16 0  17 0  18 0  19 0  20 0  21 0  22 0  23 0  24 0  25 0  26 0  27 0  28 0  29 0  30 0  31 0  32 0  33 0  34 0  35 0  36 0  37 0  38 0  39 0  40 0  41 0  42 0  43 0  44 0  45 0  46 0  47 0  48 0  49 0  50 0  
0 100  1 0  2 0  3 0  4 0  5 0  6 0  7 0  8 0  9 0  10 0  11 0  12 3  13 0  14 0  15 8  16 0  17 0  18 0  19 0  20 3  21 0  22 0  23 0  24 0  25 0  26 0  27 0  28 0  29 0  30 0  31 0  32 0  33 0  34 0  35 0  36 0  37 0  38 0  39 0  40 0  41 0  42 0  43 0  44 0  45 0  46 0  47 0  48 0  49 0  50 0  
0 100  1 0  2 0  3 0  4 0  5 0  6 0  7 0  8 0  9 0  10 0  11 0  12 3  13 0  14 0  15 8  16 9  17 0  18 0  19 0  20 3  21 3  22 0  23 0  24 8  25 0  26 0  27 0  28 0  29 3  30 0  31 0  32 0  33 0  34 0  35 0  36 0  37 0  38 0  39 0  40 0  41 0  42 0  43 0  44 0  45 0  46 0  47 0  48 0  49 0  50 0  
0 100  1 0  2 0  3 0  4 0  5 0  6 0  7 0  8 0  9 0  10 0  11 0  12 3  13 0  14 0  15 8  16 6  17 0  18 3  19 0  20 3  21 11  22 9  23 0  24 8  25 0  26 3  27 3  28 0  29 3  30 8  31 0  32 0  33 0  34 0  35 3  36 0  37 0  38 0  39 0  40 0  41 0  42 0  43 0  44 0  45 0  46 0  47 0  48 0  49 0  50 0  
0 100  1 0  2 0  3 0  4 0  5 0  6 0  7 0  8 0  9 0  10 2  11 0  12 3  13 0  14 3  15 8  16 6  17 8  18 9  19 0  20 6  21 11  22 12  23 11  24 17  25 0  26 11  27 3  28 3  29 6  30 8  31 3  32 8  33 0  34 0  35 3  36 0  37 3  38 0  39 0  40 0  41 0  42 0  43 0  44 0  45 0  46 0  47 0  48 0  49 0  50 0  
0 100  1 0  2 0  3 0  4 0  5 0  6 0  7 0  8 0  9 0  10 2  11 0  12 3  13 0  14 3  15 8  16 6  17 8  18 9  19 2  20 6  21 9  22 12  23 14  24 25  25 6  26 19  27 12  28 3  29 12  30 19  31 15  32 19  33 17  34 0  35 14  36 3  37 6  38 6  39 8  40 3  41 8  42 0  43 0  44 3  45 0  46 3  47 0  48 0  49 0  50 0  
0 100  1 0  2 0  3 0  4 0  5 0  6 0  7 0  8 0  9 0  10 2  11 0  12 3  13 0  14 5  15 8  16 9  17 8  18 4  19 10  20 12  21 17  22 21  23 16  24 31  25 15  26 31  27 26  28 28  29 18  30 38  31 27  32 22  33 29  34 19  35 29  36 22  37 23  38 6  39 22  40 6  41 14  42 6  43 8  44 6  45 8  46 3  47 0  48 3  49 0  50 3  
0 100  1 0  2 0  3 0  4 0  5 0  6 0  7 0  8 0  9 0  10 2  11 0  12 4  13 0  14 7  15 8  16 12  17 8  18 9  19 18  20 21  21 25  22 25  23 26  24 43  25 32  26 52  27 42  28 59  29 33  30 69  31 53  32 50  33 47  34 57  35 56  36 44  37 52  38 25  39 51  40 28  41 37  42 12  43 30  44 12  45 22  46 9  47 8  48 9  49 8  50 6  
0 100  1 0  2 0  3 0  4 0  5 0  6 0  7 0  8 0  9 0  10 2  11 0  12 4  13 0  14 7  15 8  16 12  17 8  18 11  19 18  20 25  21 25  22 32  23 34  24 55  25 40  26 61  27 60  28 80  29 58  30 94  31 79  32 93  33 79  34 109  35 98  36 103  37 85  38 94  39 104  40 78  41 84  42 69  43 86  44 56  45 74  46 34  47 59  48 37  49 45  50 18  
0 100  1 0  2 0  3 0  4 0  5 0  6 0  7 0  8 0  9 0  10 2  11 0  12 4  13 0  14 7  15 8  16 12  17 8  18 9  19 20  20 25  21 29  22 32  23 41  24 63  25 52  26 69  27 71  28 98  29 83  30 119  31 111  32 127  33 134  34 149  35 159  36 163  37 165  38 152  39 198  40 157  41 177  42 148  43 195  44 154  45 177  46 119  47 153  48 141  49 123  50 102  
